c *********************************
c * Circuit generated by BenCGen
c *
c * Parity_222
c *
c * Ports with 1 gate(s): 1
c * Ports with 2 gate(s): 222
c * Total gates: 223
c *********************************
p cnf 445 889
1 225 0
-1 -225 0
1 -224 0
225 -224 0
-1 -225 224 0
1 2 -226 0
-1 2 226 0
1 -2 226 0
-1 -2 -226 0
3 4 -227 0
-3 4 227 0
3 -4 227 0
-3 -4 -227 0
5 6 -228 0
-5 6 228 0
5 -6 228 0
-5 -6 -228 0
7 8 -229 0
-7 8 229 0
7 -8 229 0
-7 -8 -229 0
9 10 -230 0
-9 10 230 0
9 -10 230 0
-9 -10 -230 0
11 12 -231 0
-11 12 231 0
11 -12 231 0
-11 -12 -231 0
13 14 -232 0
-13 14 232 0
13 -14 232 0
-13 -14 -232 0
15 16 -233 0
-15 16 233 0
15 -16 233 0
-15 -16 -233 0
17 18 -234 0
-17 18 234 0
17 -18 234 0
-17 -18 -234 0
19 20 -235 0
-19 20 235 0
19 -20 235 0
-19 -20 -235 0
21 22 -236 0
-21 22 236 0
21 -22 236 0
-21 -22 -236 0
23 24 -237 0
-23 24 237 0
23 -24 237 0
-23 -24 -237 0
25 26 -238 0
-25 26 238 0
25 -26 238 0
-25 -26 -238 0
27 28 -239 0
-27 28 239 0
27 -28 239 0
-27 -28 -239 0
29 30 -240 0
-29 30 240 0
29 -30 240 0
-29 -30 -240 0
31 32 -241 0
-31 32 241 0
31 -32 241 0
-31 -32 -241 0
33 34 -242 0
-33 34 242 0
33 -34 242 0
-33 -34 -242 0
35 36 -243 0
-35 36 243 0
35 -36 243 0
-35 -36 -243 0
37 38 -244 0
-37 38 244 0
37 -38 244 0
-37 -38 -244 0
39 40 -245 0
-39 40 245 0
39 -40 245 0
-39 -40 -245 0
41 42 -246 0
-41 42 246 0
41 -42 246 0
-41 -42 -246 0
43 44 -247 0
-43 44 247 0
43 -44 247 0
-43 -44 -247 0
45 46 -248 0
-45 46 248 0
45 -46 248 0
-45 -46 -248 0
47 48 -249 0
-47 48 249 0
47 -48 249 0
-47 -48 -249 0
49 50 -250 0
-49 50 250 0
49 -50 250 0
-49 -50 -250 0
51 52 -251 0
-51 52 251 0
51 -52 251 0
-51 -52 -251 0
53 54 -252 0
-53 54 252 0
53 -54 252 0
-53 -54 -252 0
55 56 -253 0
-55 56 253 0
55 -56 253 0
-55 -56 -253 0
57 58 -254 0
-57 58 254 0
57 -58 254 0
-57 -58 -254 0
59 60 -255 0
-59 60 255 0
59 -60 255 0
-59 -60 -255 0
61 62 -256 0
-61 62 256 0
61 -62 256 0
-61 -62 -256 0
63 64 -257 0
-63 64 257 0
63 -64 257 0
-63 -64 -257 0
65 66 -258 0
-65 66 258 0
65 -66 258 0
-65 -66 -258 0
67 68 -259 0
-67 68 259 0
67 -68 259 0
-67 -68 -259 0
69 70 -260 0
-69 70 260 0
69 -70 260 0
-69 -70 -260 0
71 72 -261 0
-71 72 261 0
71 -72 261 0
-71 -72 -261 0
73 74 -262 0
-73 74 262 0
73 -74 262 0
-73 -74 -262 0
75 76 -263 0
-75 76 263 0
75 -76 263 0
-75 -76 -263 0
77 78 -264 0
-77 78 264 0
77 -78 264 0
-77 -78 -264 0
79 80 -265 0
-79 80 265 0
79 -80 265 0
-79 -80 -265 0
81 82 -266 0
-81 82 266 0
81 -82 266 0
-81 -82 -266 0
83 84 -267 0
-83 84 267 0
83 -84 267 0
-83 -84 -267 0
85 86 -268 0
-85 86 268 0
85 -86 268 0
-85 -86 -268 0
87 88 -269 0
-87 88 269 0
87 -88 269 0
-87 -88 -269 0
89 90 -270 0
-89 90 270 0
89 -90 270 0
-89 -90 -270 0
91 92 -271 0
-91 92 271 0
91 -92 271 0
-91 -92 -271 0
93 94 -272 0
-93 94 272 0
93 -94 272 0
-93 -94 -272 0
95 96 -273 0
-95 96 273 0
95 -96 273 0
-95 -96 -273 0
97 98 -274 0
-97 98 274 0
97 -98 274 0
-97 -98 -274 0
99 100 -275 0
-99 100 275 0
99 -100 275 0
-99 -100 -275 0
101 102 -276 0
-101 102 276 0
101 -102 276 0
-101 -102 -276 0
103 104 -277 0
-103 104 277 0
103 -104 277 0
-103 -104 -277 0
105 106 -278 0
-105 106 278 0
105 -106 278 0
-105 -106 -278 0
107 108 -279 0
-107 108 279 0
107 -108 279 0
-107 -108 -279 0
109 110 -280 0
-109 110 280 0
109 -110 280 0
-109 -110 -280 0
111 112 -281 0
-111 112 281 0
111 -112 281 0
-111 -112 -281 0
113 114 -282 0
-113 114 282 0
113 -114 282 0
-113 -114 -282 0
115 116 -283 0
-115 116 283 0
115 -116 283 0
-115 -116 -283 0
117 118 -284 0
-117 118 284 0
117 -118 284 0
-117 -118 -284 0
119 120 -285 0
-119 120 285 0
119 -120 285 0
-119 -120 -285 0
121 122 -286 0
-121 122 286 0
121 -122 286 0
-121 -122 -286 0
123 124 -287 0
-123 124 287 0
123 -124 287 0
-123 -124 -287 0
125 126 -288 0
-125 126 288 0
125 -126 288 0
-125 -126 -288 0
127 128 -289 0
-127 128 289 0
127 -128 289 0
-127 -128 -289 0
129 130 -290 0
-129 130 290 0
129 -130 290 0
-129 -130 -290 0
131 132 -291 0
-131 132 291 0
131 -132 291 0
-131 -132 -291 0
133 134 -292 0
-133 134 292 0
133 -134 292 0
-133 -134 -292 0
135 136 -293 0
-135 136 293 0
135 -136 293 0
-135 -136 -293 0
137 138 -294 0
-137 138 294 0
137 -138 294 0
-137 -138 -294 0
139 140 -295 0
-139 140 295 0
139 -140 295 0
-139 -140 -295 0
141 142 -296 0
-141 142 296 0
141 -142 296 0
-141 -142 -296 0
143 144 -297 0
-143 144 297 0
143 -144 297 0
-143 -144 -297 0
145 146 -298 0
-145 146 298 0
145 -146 298 0
-145 -146 -298 0
147 148 -299 0
-147 148 299 0
147 -148 299 0
-147 -148 -299 0
149 150 -300 0
-149 150 300 0
149 -150 300 0
-149 -150 -300 0
151 152 -301 0
-151 152 301 0
151 -152 301 0
-151 -152 -301 0
153 154 -302 0
-153 154 302 0
153 -154 302 0
-153 -154 -302 0
155 156 -303 0
-155 156 303 0
155 -156 303 0
-155 -156 -303 0
157 158 -304 0
-157 158 304 0
157 -158 304 0
-157 -158 -304 0
159 160 -305 0
-159 160 305 0
159 -160 305 0
-159 -160 -305 0
161 162 -306 0
-161 162 306 0
161 -162 306 0
-161 -162 -306 0
163 164 -307 0
-163 164 307 0
163 -164 307 0
-163 -164 -307 0
165 166 -308 0
-165 166 308 0
165 -166 308 0
-165 -166 -308 0
167 168 -309 0
-167 168 309 0
167 -168 309 0
-167 -168 -309 0
169 170 -310 0
-169 170 310 0
169 -170 310 0
-169 -170 -310 0
171 172 -311 0
-171 172 311 0
171 -172 311 0
-171 -172 -311 0
173 174 -312 0
-173 174 312 0
173 -174 312 0
-173 -174 -312 0
175 176 -313 0
-175 176 313 0
175 -176 313 0
-175 -176 -313 0
177 178 -314 0
-177 178 314 0
177 -178 314 0
-177 -178 -314 0
179 180 -315 0
-179 180 315 0
179 -180 315 0
-179 -180 -315 0
181 182 -316 0
-181 182 316 0
181 -182 316 0
-181 -182 -316 0
183 184 -317 0
-183 184 317 0
183 -184 317 0
-183 -184 -317 0
185 186 -318 0
-185 186 318 0
185 -186 318 0
-185 -186 -318 0
187 188 -319 0
-187 188 319 0
187 -188 319 0
-187 -188 -319 0
189 190 -320 0
-189 190 320 0
189 -190 320 0
-189 -190 -320 0
191 192 -321 0
-191 192 321 0
191 -192 321 0
-191 -192 -321 0
193 194 -322 0
-193 194 322 0
193 -194 322 0
-193 -194 -322 0
195 196 -323 0
-195 196 323 0
195 -196 323 0
-195 -196 -323 0
197 198 -324 0
-197 198 324 0
197 -198 324 0
-197 -198 -324 0
199 200 -325 0
-199 200 325 0
199 -200 325 0
-199 -200 -325 0
201 202 -326 0
-201 202 326 0
201 -202 326 0
-201 -202 -326 0
203 204 -327 0
-203 204 327 0
203 -204 327 0
-203 -204 -327 0
205 206 -328 0
-205 206 328 0
205 -206 328 0
-205 -206 -328 0
207 208 -329 0
-207 208 329 0
207 -208 329 0
-207 -208 -329 0
209 210 -330 0
-209 210 330 0
209 -210 330 0
-209 -210 -330 0
211 212 -331 0
-211 212 331 0
211 -212 331 0
-211 -212 -331 0
213 214 -332 0
-213 214 332 0
213 -214 332 0
-213 -214 -332 0
215 216 -333 0
-215 216 333 0
215 -216 333 0
-215 -216 -333 0
217 218 -334 0
-217 218 334 0
217 -218 334 0
-217 -218 -334 0
219 220 -335 0
-219 220 335 0
219 -220 335 0
-219 -220 -335 0
221 222 -336 0
-221 222 336 0
221 -222 336 0
-221 -222 -336 0
226 227 -337 0
-226 227 337 0
226 -227 337 0
-226 -227 -337 0
228 229 -338 0
-228 229 338 0
228 -229 338 0
-228 -229 -338 0
230 231 -339 0
-230 231 339 0
230 -231 339 0
-230 -231 -339 0
232 233 -340 0
-232 233 340 0
232 -233 340 0
-232 -233 -340 0
234 235 -341 0
-234 235 341 0
234 -235 341 0
-234 -235 -341 0
236 237 -342 0
-236 237 342 0
236 -237 342 0
-236 -237 -342 0
238 239 -343 0
-238 239 343 0
238 -239 343 0
-238 -239 -343 0
240 241 -344 0
-240 241 344 0
240 -241 344 0
-240 -241 -344 0
242 243 -345 0
-242 243 345 0
242 -243 345 0
-242 -243 -345 0
244 245 -346 0
-244 245 346 0
244 -245 346 0
-244 -245 -346 0
246 247 -347 0
-246 247 347 0
246 -247 347 0
-246 -247 -347 0
248 249 -348 0
-248 249 348 0
248 -249 348 0
-248 -249 -348 0
250 251 -349 0
-250 251 349 0
250 -251 349 0
-250 -251 -349 0
252 253 -350 0
-252 253 350 0
252 -253 350 0
-252 -253 -350 0
254 255 -351 0
-254 255 351 0
254 -255 351 0
-254 -255 -351 0
256 257 -352 0
-256 257 352 0
256 -257 352 0
-256 -257 -352 0
258 259 -353 0
-258 259 353 0
258 -259 353 0
-258 -259 -353 0
260 261 -354 0
-260 261 354 0
260 -261 354 0
-260 -261 -354 0
262 263 -355 0
-262 263 355 0
262 -263 355 0
-262 -263 -355 0
264 265 -356 0
-264 265 356 0
264 -265 356 0
-264 -265 -356 0
266 267 -357 0
-266 267 357 0
266 -267 357 0
-266 -267 -357 0
268 269 -358 0
-268 269 358 0
268 -269 358 0
-268 -269 -358 0
270 271 -359 0
-270 271 359 0
270 -271 359 0
-270 -271 -359 0
272 273 -360 0
-272 273 360 0
272 -273 360 0
-272 -273 -360 0
274 275 -361 0
-274 275 361 0
274 -275 361 0
-274 -275 -361 0
276 277 -362 0
-276 277 362 0
276 -277 362 0
-276 -277 -362 0
278 279 -363 0
-278 279 363 0
278 -279 363 0
-278 -279 -363 0
280 281 -364 0
-280 281 364 0
280 -281 364 0
-280 -281 -364 0
282 283 -365 0
-282 283 365 0
282 -283 365 0
-282 -283 -365 0
284 285 -366 0
-284 285 366 0
284 -285 366 0
-284 -285 -366 0
286 287 -367 0
-286 287 367 0
286 -287 367 0
-286 -287 -367 0
288 289 -368 0
-288 289 368 0
288 -289 368 0
-288 -289 -368 0
290 291 -369 0
-290 291 369 0
290 -291 369 0
-290 -291 -369 0
292 293 -370 0
-292 293 370 0
292 -293 370 0
-292 -293 -370 0
294 295 -371 0
-294 295 371 0
294 -295 371 0
-294 -295 -371 0
296 297 -372 0
-296 297 372 0
296 -297 372 0
-296 -297 -372 0
298 299 -373 0
-298 299 373 0
298 -299 373 0
-298 -299 -373 0
300 301 -374 0
-300 301 374 0
300 -301 374 0
-300 -301 -374 0
302 303 -375 0
-302 303 375 0
302 -303 375 0
-302 -303 -375 0
304 305 -376 0
-304 305 376 0
304 -305 376 0
-304 -305 -376 0
306 307 -377 0
-306 307 377 0
306 -307 377 0
-306 -307 -377 0
308 309 -378 0
-308 309 378 0
308 -309 378 0
-308 -309 -378 0
310 311 -379 0
-310 311 379 0
310 -311 379 0
-310 -311 -379 0
312 313 -380 0
-312 313 380 0
312 -313 380 0
-312 -313 -380 0
314 315 -381 0
-314 315 381 0
314 -315 381 0
-314 -315 -381 0
316 317 -382 0
-316 317 382 0
316 -317 382 0
-316 -317 -382 0
318 319 -383 0
-318 319 383 0
318 -319 383 0
-318 -319 -383 0
320 321 -384 0
-320 321 384 0
320 -321 384 0
-320 -321 -384 0
322 323 -385 0
-322 323 385 0
322 -323 385 0
-322 -323 -385 0
324 325 -386 0
-324 325 386 0
324 -325 386 0
-324 -325 -386 0
326 327 -387 0
-326 327 387 0
326 -327 387 0
-326 -327 -387 0
328 329 -388 0
-328 329 388 0
328 -329 388 0
-328 -329 -388 0
330 331 -389 0
-330 331 389 0
330 -331 389 0
-330 -331 -389 0
332 333 -390 0
-332 333 390 0
332 -333 390 0
-332 -333 -390 0
334 335 -391 0
-334 335 391 0
334 -335 391 0
-334 -335 -391 0
337 338 -392 0
-337 338 392 0
337 -338 392 0
-337 -338 -392 0
339 340 -393 0
-339 340 393 0
339 -340 393 0
-339 -340 -393 0
341 342 -394 0
-341 342 394 0
341 -342 394 0
-341 -342 -394 0
343 344 -395 0
-343 344 395 0
343 -344 395 0
-343 -344 -395 0
345 346 -396 0
-345 346 396 0
345 -346 396 0
-345 -346 -396 0
347 348 -397 0
-347 348 397 0
347 -348 397 0
-347 -348 -397 0
349 350 -398 0
-349 350 398 0
349 -350 398 0
-349 -350 -398 0
351 352 -399 0
-351 352 399 0
351 -352 399 0
-351 -352 -399 0
353 354 -400 0
-353 354 400 0
353 -354 400 0
-353 -354 -400 0
355 356 -401 0
-355 356 401 0
355 -356 401 0
-355 -356 -401 0
357 358 -402 0
-357 358 402 0
357 -358 402 0
-357 -358 -402 0
359 360 -403 0
-359 360 403 0
359 -360 403 0
-359 -360 -403 0
361 362 -404 0
-361 362 404 0
361 -362 404 0
-361 -362 -404 0
363 364 -405 0
-363 364 405 0
363 -364 405 0
-363 -364 -405 0
365 366 -406 0
-365 366 406 0
365 -366 406 0
-365 -366 -406 0
367 368 -407 0
-367 368 407 0
367 -368 407 0
-367 -368 -407 0
369 370 -408 0
-369 370 408 0
369 -370 408 0
-369 -370 -408 0
371 372 -409 0
-371 372 409 0
371 -372 409 0
-371 -372 -409 0
373 374 -410 0
-373 374 410 0
373 -374 410 0
-373 -374 -410 0
375 376 -411 0
-375 376 411 0
375 -376 411 0
-375 -376 -411 0
377 378 -412 0
-377 378 412 0
377 -378 412 0
-377 -378 -412 0
379 380 -413 0
-379 380 413 0
379 -380 413 0
-379 -380 -413 0
381 382 -414 0
-381 382 414 0
381 -382 414 0
-381 -382 -414 0
383 384 -415 0
-383 384 415 0
383 -384 415 0
-383 -384 -415 0
385 386 -416 0
-385 386 416 0
385 -386 416 0
-385 -386 -416 0
387 388 -417 0
-387 388 417 0
387 -388 417 0
-387 -388 -417 0
389 390 -418 0
-389 390 418 0
389 -390 418 0
-389 -390 -418 0
391 336 -419 0
-391 336 419 0
391 -336 419 0
-391 -336 -419 0
392 393 -420 0
-392 393 420 0
392 -393 420 0
-392 -393 -420 0
394 395 -421 0
-394 395 421 0
394 -395 421 0
-394 -395 -421 0
396 397 -422 0
-396 397 422 0
396 -397 422 0
-396 -397 -422 0
398 399 -423 0
-398 399 423 0
398 -399 423 0
-398 -399 -423 0
400 401 -424 0
-400 401 424 0
400 -401 424 0
-400 -401 -424 0
402 403 -425 0
-402 403 425 0
402 -403 425 0
-402 -403 -425 0
404 405 -426 0
-404 405 426 0
404 -405 426 0
-404 -405 -426 0
406 407 -427 0
-406 407 427 0
406 -407 427 0
-406 -407 -427 0
408 409 -428 0
-408 409 428 0
408 -409 428 0
-408 -409 -428 0
410 411 -429 0
-410 411 429 0
410 -411 429 0
-410 -411 -429 0
412 413 -430 0
-412 413 430 0
412 -413 430 0
-412 -413 -430 0
414 415 -431 0
-414 415 431 0
414 -415 431 0
-414 -415 -431 0
416 417 -432 0
-416 417 432 0
416 -417 432 0
-416 -417 -432 0
418 419 -433 0
-418 419 433 0
418 -419 433 0
-418 -419 -433 0
420 421 -434 0
-420 421 434 0
420 -421 434 0
-420 -421 -434 0
422 423 -435 0
-422 423 435 0
422 -423 435 0
-422 -423 -435 0
424 425 -436 0
-424 425 436 0
424 -425 436 0
-424 -425 -436 0
426 427 -437 0
-426 427 437 0
426 -427 437 0
-426 -427 -437 0
428 429 -438 0
-428 429 438 0
428 -429 438 0
-428 -429 -438 0
430 431 -439 0
-430 431 439 0
430 -431 439 0
-430 -431 -439 0
432 433 -440 0
-432 433 440 0
432 -433 440 0
-432 -433 -440 0
434 435 -441 0
-434 435 441 0
434 -435 441 0
-434 -435 -441 0
436 437 -442 0
-436 437 442 0
436 -437 442 0
-436 -437 -442 0
438 439 -443 0
-438 439 443 0
438 -439 443 0
-438 -439 -443 0
441 442 -444 0
-441 442 444 0
441 -442 444 0
-441 -442 -444 0
443 440 -445 0
-443 440 445 0
443 -440 445 0
-443 -440 -445 0
444 445 -223 0
-444 445 223 0
444 -445 223 0
-444 -445 -223 0
